100 90603

 403 852
723 56
684 149
964 577
216 740
552 77
602 921
999 974
202 606
524 482
347 742
526 329
233 494
48 917
573 956
336 928
182 263
324 233
50 298
951 442
582 315
815 375
424 621
904 763
484 736
574 815
492 33
734 48
567 790
272 534
146 579
607 53
490 256
96 639
396 860
515 917
827 501
77 546
349 834
823 538
649 517
290 906
846 790
494 910
499 219
977 525
948 843
359 112
141 795
326 183
31 809
21 613
396 194
942 474
872 682
512 634
566 428
6 900
216 520
25 506
755 63
146 923
870 178
644 529
230 804
158 216
628 528
901 241
719 760
349 565
588 856
311 895
1000 649
749 726
615 550
424 385
619 649
342 909
29 417
396 315
931 389
627 436
84 74
885 499
269 495
244 589
298 363
578 614
545 879
492 956
718 584
317 43
783 970
176 706
783 336
664 148
684 144
482 168
668 46
80 903
